192
64 water molecules, box = 12.4138 A
  O      1.582514      1.683406      1.505589
  H      1.710028      0.825418      1.094255
  H      1.416647      2.279566      0.771639
  O      1.486996      1.457632      4.792605
  H      1.545897      0.691576      5.368182
  H      1.892724      2.167753      5.295309
  O      1.694522      1.361220      7.563896
  H      1.592460      2.314435      7.614540
  H      0.919660      1.061742      7.082750
  O      1.761384      1.686398     10.928689
  H      1.567838      2.589078     11.191956
  H      2.720029      1.644996     10.898925
  O      1.388683      4.531403      1.630311
  H      2.089709      3.905558      1.434145
  H      1.023710      4.760201      0.772379
  O      1.547936      4.610673      4.542532
  H      1.615655      3.878729      3.925060
  H      2.455315      4.890212      4.684385
  O      1.552827      4.729547      7.527996
  H      1.554468      4.005652      8.158531
  H      2.416505      5.136738      7.627271
  O      1.401998      4.644996     11.153411
  H      1.068284      4.550708     10.258232
  H      1.060837      5.492203     11.449128
  O      1.747529      7.820461      1.578766
  H      1.985383      7.008251      2.031911
  H      0.861904      8.019540      1.891232
  O      1.660505      7.983899      4.661428
  H      1.520506      8.546118      3.895981
  H      2.140473      7.226411      4.318728
  O      1.656538      7.964030      7.508542
  H      1.511398      8.339953      8.379873
  H      2.515035      8.300600      7.241511
  O      1.595199      7.516053     11.093271
  H      1.282572      6.850664     10.475920
  H      1.923882      8.225364     10.536095
  O      1.608384     10.896146      1.347101
  H      2.098642     10.414172      2.017137
  H      0.923704     11.358349      1.836163
  O      1.666907     10.894705      4.588545
  H      1.600765     10.001168      4.933244
  H      1.898244     11.430006      5.351131
  O      1.277880     10.744936      7.697536
  H      0.369311     10.797477      8.003055
  H      1.786478     11.192300      8.377826
  O      1.709254     10.917981     10.977096
  H      1.500131     11.527694     10.265676
  H      1.192912     11.232512     11.722792
  O      4.561249      1.559602      1.651700
  H      4.114046      1.478437      0.806110
  H      4.954126      0.696265      1.799676
  O      4.752114      1.759629      4.687129
  H      3.890192      2.167293      4.575325
  H      5.264507      2.071374      3.937551
  O      4.567734      1.354374      7.956093
  H      4.486433      0.399807      8.017663
  H      5.007954      1.504444      7.116280
  O      4.668095      1.253338     11.155082
  H      5.151111      1.968933     10.735298
  H      5.164713      1.064748     11.954710
  O      4.667181      4.896322      1.841904
  H      4.128197      4.483791      1.162996
  H      5.124594      5.607102      1.386750
  O      4.591797      4.793819      4.451816
  H      4.264300      5.566710      3.986000
  H      4.540687      5.033087      5.380115
  O      4.402794      4.612183      7.581351
  H      5.061777      3.928284      7.721436
  H      4.521745      5.215249      8.318753
  O      4.533291      4.911726     10.903477
  H      4.408570      3.961051     10.855904
  H      3.722683      5.241024     11.298543
  O      4.384322      7.883843      1.755271
  H      3.662821      8.108645      2.347301
  H      5.104493      7.633037      2.338409
  O      4.539057      7.857782      4.422010
  H      4.287041      7.255145      5.125514
  H      4.739305      8.681945      4.871740
  O      4.619372      7.721554      7.917683
  H      3.966057      7.027918      7.800849
  H      4.976287      7.570128      8.795909
  O      4.844081      7.660865     11.118621
  H      4.193891      8.090150     10.557758
  H      4.615647      6.729169     11.081736
  O      4.402664     11.077708      1.744627
  H      4.404177     11.262345      2.686703
  H      4.390301     11.943477      1.330028
  O      4.438224     10.801702      4.609759
  H      4.220505     11.414375      3.903480
  H      5.363082     10.588145      4.466119
  O      4.842162     10.842868      7.943388
  H      5.578163     10.843390      7.327026
  H      4.360336     11.648676      7.743095
  O      4.704480     10.685732     10.992730
  H      4.501770     11.611423     11.146370
  H      3.893316     10.222186     11.213494
  O      7.840165      1.271044      1.698593
  H      7.209315      0.594018      1.954061
  H      7.904063      1.842427      2.467383
  O      7.498690      1.643744      4.952827
  H      6.805959      2.229364      4.638544
  H      7.373716      0.833675      4.453057
  O      7.878525      1.648426      7.488083
  H      7.672138      1.608665      8.424792
  H      7.244646      1.056179      7.076938
  O      7.931537      1.498667     10.850691
  H      8.286705      1.096987     11.647001
  H      8.619349      1.376064     10.192296
  O      7.570767      4.605550      1.845146
  H      8.039128      4.481018      1.016454
  H      6.814738      5.150337      1.614436
  O      7.513403      4.633367      4.656505
  H      7.659559      4.624343      5.605271
  H      8.254855      4.142719      4.294407
  O      7.515943      4.498125      7.943300
  H      7.851204      5.248462      8.439480
  H      7.239365      4.870097      7.102620
  O      8.046974      4.678878     10.937861
  H      7.337409      4.904658     10.331940
  H      8.393469      5.525690     11.228464
  O      7.683736      7.516848      1.528870
  H      7.158298      8.316095      1.446903
  H      7.042142      6.803337      1.499551
  O      7.937933      7.583574      4.621196
  H      8.500607      8.252329      4.224001
  H      7.181244      7.525977      4.033229
  O      8.039122      7.849075      7.977901
  H      7.867564      6.958242      8.291883
  H      7.850428      7.812926      7.037322
  O      7.499094      8.054445     10.703952
  H      7.451956      7.304233     10.106826
  H      7.670847      8.806279     10.132247
  O      7.598113     10.742441      1.632390
  H      8.444929     10.725377      1.180493
  H      6.959077     10.921610      0.938754
  O      7.678056     10.882407      4.452385
  H      7.869174     10.741429      3.522224
  H      6.725327     10.994933      4.487651
  O      7.474343     11.094631      7.468296
  H      7.406048     11.940177      7.018865
  H      7.755170     10.481334      6.785212
  O      7.885224     11.144703     11.085085
  H      7.316870     11.529033     11.756549
  H      8.644974     10.817148     11.572001
  O     11.085802      1.465300      1.809583
  H     10.481103      1.958632      1.250511
  H     10.663420      1.456747      2.671627
  O     11.069708      1.326079      4.713067
  H     11.620863      1.270685      5.497133
  H     11.061374      0.432802      4.361516
  O     10.612968      1.387024      7.983700
  H     10.393894      2.132298      8.547769
  H     10.620633      0.631464      8.575874
  O     10.697353      1.595013     10.958646
  H     11.138858      2.342480     10.548809
  H     11.291789      1.320027     11.660521
  O     11.121485      4.707671      1.820676
  H     11.338589      4.878562      0.901295
  H     11.885310      4.238976      2.164911
  O     10.850608      4.911648      4.474194
  H     10.279763      4.186301      4.738027
  H     10.246293      5.610909      4.214508
  O     11.076367      4.371142      8.010715
  H     10.806663      3.616283      7.482465
  H     12.027275      4.422137      7.889167
  O     11.049247      4.556501     10.771815
  H     10.167316      4.258858     10.536854
  H     11.175072      4.248163     11.672201
  O     10.707407      8.021226      1.796532
  H     11.452994      8.078041      2.398589
  H      9.937686      7.990342      2.369398
  O     10.685744      7.660429      4.551435
  H     11.249453      6.883965      4.582034
  H     10.238349      7.666274      5.400790
  O     11.137682      7.712151      7.605645
  H     11.500320      6.876730      7.909232
  H     10.645580      8.048255      8.358287
  O     10.617387      7.820384     10.780587
  H     10.355902      8.400625     10.061876
  H     10.652196      6.946915     10.383802
  O     10.691378     10.728889      1.696781
  H     10.096212     11.098736      1.040588
  H     11.098800      9.979401      1.256469
  O     10.978466     11.109354      4.703603
  H     11.308824     11.933608      4.338816
  H     11.223766     10.444485      4.056010
  O     10.682316     11.054420      7.737586
  H     10.630398     11.823693      8.309532
  H     10.730000     10.309164      8.340844
  O     11.134293     10.956764     11.025802
  H     11.357530     10.281229     10.381273
  H     10.865243     11.712525     10.498510
