81
27 water molecules in 20.0 A box
  O       3.333333      3.333333      3.333333
  H       3.831997      2.612368      3.717750
  H       3.999099      3.948796      3.026423
  O       3.333333      3.333333     10.000000
  H       3.377454      3.530985     10.935531
  H       4.002663      3.891987      9.604860
  O       3.333333      3.333333     16.666667
  H       2.997321      2.438568     16.718836
  H       3.783423      3.469653     17.500374
  O       3.333333     10.000000      3.333333
  H       3.710500      9.645646      2.528094
  H       3.226766      9.238717      3.903705
  O       3.333333     10.000000     10.000000
  H       3.444689     10.165657      9.063843
  H       2.845381      9.177573     10.041807
  O       3.333333     10.000000     16.666667
  H       3.603451     10.043893     17.583914
  H       3.112783      9.079356     16.525231
  O       3.333333     16.666667      3.333333
  H       3.048673     17.573845      3.222757
  H       2.525117     16.179300      3.492994
  O       3.333333     16.666667     10.000000
  H       4.012989     17.092814     10.522205
  H       3.104479     17.312121      9.331235
  O       3.333333     16.666667     16.666667
  H       4.152322     16.997237     17.035736
  H       2.680852     17.326657     16.901001
  O      10.000000      3.333333      3.333333
  H      10.373497      3.054972      4.169543
  H      10.630192      3.034605      2.677703
  O      10.000000      3.333333     10.000000
  H       9.168691      3.096209      9.588989
  H      10.352578      4.028662      9.444627
  O      10.000000      3.333333     16.666667
  H      10.407175      2.638064     16.149907
  H       9.145620      2.979598     16.913928
  O      10.000000     10.000000      3.333333
  H      10.570408     10.285981      2.619834
  H       9.477045     10.772738      3.546937
  O      10.000000     10.000000     10.000000
  H      10.686299     10.664804      9.942896
  H       9.194151     10.467488      9.780239
  O      10.000000     10.000000     16.666667
  H      10.792004     10.429218     16.343040
  H       9.461474     10.714688     17.006435
  O      10.000000     16.666667      3.333333
  H      10.358553     16.251225      2.549063
  H      10.615750     17.371394      3.534440
  O      10.000000     16.666667     10.000000
  H      10.562164     17.220936     10.541284
  H      10.575536     16.347086      9.305119
  O      10.000000     16.666667     16.666667
  H      10.603620     17.388343     16.842901
  H       9.202187     17.092320     16.352747
  O      16.666667      3.333333      3.333333
  H      17.189423      4.126552      3.450646
  H      16.199413      3.473470      2.509763
  O      16.666667      3.333333     10.000000
  H      16.471565      3.193868     10.926670
  H      17.547155      3.708749      9.993985
  O      16.666667      3.333333     16.666667
  H      17.291660      2.626177     16.826494
  H      16.019312      2.951994     16.073587
  O      16.666667     10.000000      3.333333
  H      17.334897      9.924574      2.652150
  H      16.981558     10.702930      3.901634
  O      16.666667     10.000000     10.000000
  H      16.882155      9.233797      9.468277
  H      17.482812     10.498109     10.045010
  O      16.666667     10.000000     16.666667
  H      17.254198     10.723175     16.885885
  H      15.835862     10.423055     16.449828
  O      16.666667     16.666667      3.333333
  H      16.186883     16.449381      2.534067
  H      15.998371     17.002765      3.930536
  O      16.666667     16.666667     10.000000
  H      15.928944     16.169727      9.646377
  H      16.807835     16.298646     10.872275
  O      16.666667     16.666667     16.666667
  H      15.785101     16.998908     16.497284
  H      17.168955     16.911863     15.889610
