72
24 water molecules, box = 9.8528 A
  O      2.522395      1.435745      1.025197
  H      1.945956      1.102961      1.716987
  H      2.972444      0.656140      0.691622
  O      2.588044      1.354484      3.976746
  H      2.855879      0.670993      4.595377
  H      1.689313      1.572815      4.234070
  O      2.273243      1.524679      6.172854
  H      1.722286      1.222949      5.446902
  H      2.938661      2.077072      5.756104
  O      2.246896      1.517420      8.541017
  H      1.683157      1.945110      7.892265
  H      3.040394      1.284352      8.053533
  O      2.471741      4.981849      0.959470
  H      3.143164      4.685369      1.578252
  H      1.880449      5.523239      1.487553
  O      2.732531      5.205779      3.879838
  H      2.843724      4.608512      3.136530
  H      3.137857      6.026763      3.591227
  O      2.427291      4.699623      6.155106
  H      1.835147      3.985134      6.401015
  H      2.633543      4.534028      5.232264
  O      2.560713      4.813427      8.633241
  H      1.797982      5.179029      9.087307
  H      3.268870      5.436092      8.813248
  O      2.628280      8.474366      1.468496
  H      2.522131      7.754824      0.841925
  H      3.193729      9.105049      1.016714
  O      2.280790      7.937803      3.589998
  H      3.223623      7.793819      3.480752
  H      2.218458      8.628941      4.253356
  O      2.377252      8.079227      6.183618
  H      2.058686      7.446405      5.535813
  H      2.621180      8.850405      5.666525
  O      2.755332      8.374014      8.440429
  H      2.210933      8.636999      9.186129
  H      3.637580      8.281970      8.807536
  O      7.527004      1.804896      0.976027
  H      8.201452      1.398624      1.525266
  H      6.726719      1.758372      1.504211
  O      7.463579      1.540672      3.432935
  H      7.643220      0.598903      3.481920
  H      7.856331      1.817377      2.601803
  O      7.472134      1.874461      6.141329
  H      7.144742      1.554180      5.297626
  H      7.867874      2.725209      5.938307
  O      7.426366      1.804714      8.617477
  H      7.936482      2.479775      9.070990
  H      6.898032      1.398088      9.308215
  O      7.154335      4.645258      1.313446
  H      6.705771      3.811983      1.152063
  H      6.560608      5.310635      0.957972
  O      7.239175      4.872630      3.848131
  H      6.553267      4.965570      3.182930
  H      6.943783      5.423697      4.576600
  O      7.186333      5.184219      6.342872
  H      6.873554      6.002473      6.735591
  H      7.241894      5.374294      5.403519
  O      7.201542      5.161935      8.644805
  H      6.991824      4.225764      8.679470
  H      7.680092      5.331385      9.459592
  O      7.155631      8.047428      1.187865
  H      6.539452      8.753856      0.980786
  H      7.384885      8.190767      2.109003
  O      7.396048      8.161113      3.528065
  H      8.288394      8.515018      3.536423
  H      7.256398      7.840108      4.421963
  O      7.283522      8.221941      6.279811
  H      7.604337      8.693073      5.507340
  H      6.386944      7.966680      6.050486
  O      7.240669      8.209016      8.501727
  H      7.588583      7.614147      9.170074
  H      8.017728      8.533408      8.040697
