22
Alanine dipeptide (Ace-Ala-Nme)
  C     -1.345866     -2.477450     -0.433004
  C      0.174134     -2.477450     -0.433004
  O      0.807631     -3.531765     -0.433004
  N      0.757167     -1.282054     -0.433004
  H      1.765783     -1.229194     -0.433004
  C     -0.032559     -0.065981     -0.433004
  H      0.165314     -0.370680     -1.460674
  C      0.732368      1.034862      0.283536
  H      0.549534      1.332351     -0.749020
  C      0.701430      1.060180      0.276517
  O      1.890610      0.953852      0.572227
  N     -0.018495      2.144864      0.548671
  H      0.452459      3.032706      0.648869
  C     -1.458295      2.066605      0.701488
  H     -0.982555     -2.477450     -1.460674
  H     -0.982555     -3.367438      0.080831
  H     -0.982555     -1.587462      0.080831
  H     -0.219545      0.866798      0.787239
  H      1.318614      0.116065      0.298586
  H     -1.206004      2.086213     -0.358731
  H     -0.995540      1.197522      1.169094
  H     -1.091073      2.974904      1.179233
